id: 1159
name: neos-631710
group: miplib2010
method: 2

Gurobi 7.0.2 (linux64, Matlab) logging started Mon Mar 26 10:15:27 2018


Gurobi 7.0.2 (linux64) logging started Mon Mar 26 10:15:27 2018

Optimize a model with 169576 rows, 167056 columns and 834166 nonzeros
Coefficient statistics:
  Matrix range     [1e+00, 4e+00]
  Objective range  [1e+00, 1e+00]
  Bounds range     [1e+00, 1e+00]
  RHS range        [1e+00, 1e+00]
Presolve time: 0.20s
Presolved: 169576 rows, 167056 columns, 834166 nonzeros

Ordering time: 0.08s

Barrier statistics:
 Dense cols : 555
 AA' NZ     : 1.007e+06
 Factor NZ  : 1.994e+06 (roughly 150 MBytes of memory)
 Factor Ops : 9.072e+08 (less than 1 second per iteration)
 Threads    : 4

                  Objective                Residual
Iter       Primal          Dual         Primal    Dual     Compl     Time
   0   4.21445691e+02 -5.21411646e+01  4.18e+02 6.69e-03  3.47e-02     1s
   1   3.84257205e+02 -6.45131862e+01  4.09e+01 2.09e-14  2.57e-03     1s
   2   1.88784839e+02 -3.43427222e+01  1.83e+01 1.62e-14  1.17e-03     1s
   3   1.92179836e+02  1.57249124e+02  4.98e+00 4.77e-15  2.54e-04     1s
   4   1.88268855e+02  1.72791437e+02  1.57e-02 9.99e-16  3.12e-05     1s
   5   1.88250009e+02  1.88187447e+02  3.62e-06 2.42e-14  1.24e-07     1s
   6   1.88250000e+02  1.88249937e+02  2.13e-14 5.55e-16  1.24e-10     1s
   7   1.88250000e+02  1.88250000e+02  2.73e-14 7.77e-16  1.27e-16     1s

Barrier solved model in 7 iterations and 1.39 seconds
Optimal objective 1.88250000e+02

Crossover log...

  166200 PPushes remaining with PInf 0.0000000e+00                 1s
   88323 PPushes remaining with PInf 0.0000000e+00                 5s
       0 PPushes remaining with PInf 0.0000000e+00                 9s

  Push phase complete: Pinf 0.0000000e+00, Dinf 0.0000000e+00      9s

Iteration    Objective       Primal Inf.    Dual Inf.      Time
  166203    1.8825000e+02   0.000000e+00   0.000000e+00      9s
  166203    1.8825000e+02   0.000000e+00   0.000000e+00      9s

Solved in 166203 iterations and 8.85 seconds
Optimal objective  1.882500000e+02
status: OPTIMAL
